102
water cluster benchmark (34 H2O)
O 0.0000 0.0000 0.0000
H 0.9600 0.0000 0.0000
H -0.2404 0.8879 0.2747
O 0.0000 0.0000 3.2000
H 0.7342 0.6184 3.2000
H -0.7826 0.5312 3.3643
O 0.0000 0.0000 6.4000
H 0.1632 0.9460 6.4000
H -0.9568 -0.0754 6.3767
O 0.0000 3.2000 0.0000
H -0.4847 4.0287 0.0000
H -0.6809 2.5535 -0.2000
O 0.0000 3.2000 3.2000
H -0.9045 3.5216 3.2000
H -0.0849 2.2865 2.9174
O 0.0000 3.2000 6.4000
H -0.8990 2.8632 6.4000
H 0.5511 2.4491 6.1677
O 0.0000 6.4000 0.0000
H -0.4707 5.5633 0.0000
H 0.9279 6.1648 -0.0727
O 0.0000 6.4000 3.2000
H 0.1791 5.4568 3.2000
H 0.8683 6.7912 3.3210
O 0.0000 6.4000 6.4000
H 0.7445 5.7940 6.4000
H 0.4003 7.2336 6.6579
O 0.0000 9.6000 0.0000
H 0.9599 9.6161 0.0000
H -0.2560 10.4839 0.2734
O 0.0000 9.6000 3.2000
H 0.7237 10.2307 3.2000
H -0.7918 10.1185 3.3604
O 0.0000 9.6000 6.4000
H 0.1472 10.5486 6.4000
H -0.9553 9.5093 6.3719
O 3.2000 0.0000 0.0000
H 2.7015 0.8204 0.0000
H 2.5305 -0.6573 -0.2033
O 3.2000 0.0000 3.2000
H 2.2902 0.3063 3.2000
H 3.1312 -0.9148 2.9170
O 3.2000 0.0000 6.4000
H 2.3068 -0.3518 6.4000
H 3.7643 -0.7420 6.1705
O 3.2000 3.2000 0.0000
H 2.7435 2.3555 0.0000
H 4.1319 2.9798 -0.0681
O 3.2000 3.2000 3.2000
H 3.3949 2.2600 3.2000
H 4.0613 3.6051 3.3253
O 3.2000 3.2000 6.4000
H 3.9546 2.6066 6.4000
H 3.5856 4.0399 6.6598
O 3.2000 6.4000 0.0000
H 4.1595 6.4323 0.0000
H 2.9285 7.2797 0.2721
O 3.2000 6.4000 3.2000
H 3.9130 7.0428 3.2000
H 2.3992 6.9057 3.3564
O 3.2000 6.4000 6.4000
H 3.3313 7.3510 6.4000
H 2.2464 6.2939 6.3672
O 3.2000 9.6000 0.0000
H 2.6878 10.4119 0.0000
H 2.5422 8.9320 -0.2066
O 3.2000 9.6000 3.2000
H 2.2852 9.8910 3.2000
H 3.1473 8.6843 2.9167
O 3.2000 9.6000 6.4000
H 2.3128 9.2332 6.4000
H 3.7772 8.8672 6.1733
O 6.4000 0.0000 0.0000
H 5.9577 -0.8521 0.0000
H 7.3357 -0.2052 -0.0635
O 6.4000 0.0000 3.2000
H 6.6107 -0.9366 3.2000
H 7.2540 0.4189 3.3296
O 6.4000 0.0000 6.4000
H 7.1645 -0.5806 6.4000
H 6.7707 0.8460 6.6617
O 6.4000 3.2000 0.0000
H 7.3588 3.2484 0.0000
H 6.1131 4.0752 0.2707
O 6.4000 3.2000 3.2000
H 7.1021 3.8547 3.2000
H 5.5904 3.6928 3.3524
O 6.4000 3.2000 6.4000
H 6.5153 4.1531 6.4000
H 5.4484 3.0786 6.3625
O 6.4000 6.4000 0.0000
H 5.8742 7.2032 0.0000
H 5.7540 5.7215 -0.2099
O 6.4000 6.4000 3.2000
H 5.4804 6.6756 3.2000
H 6.3635 5.4835 2.9165
O 6.4000 6.4000 6.4000
H 5.5191 6.0183 6.4000
H 6.9901 5.6766 6.1762
O 6.4000 9.6000 0.0000
H 5.9721 8.7406 0.0000
H 7.3391 9.4098 -0.0588
